Gurobi 12.0.3:   lim:time = 14400
  mip:bestbound = 1
Set parameter LogToConsole to value 1
  tech:outlev = 1
Set parameter InfUnbdInfo to value 1
Gurobi Optimizer version 12.0.3 build v12.0.3rc0 (win64 - Windows 11.0 (26100.2))

CPU model: 12th Gen Intel(R) Core(TM) i7-12700, instruction set [SSE2|AVX|AVX2]
Thread count: 12 physical cores, 20 logical processors, using up to 20 threads

Non-default parameters:
TimeLimit  14400
InfUnbdInfo  1

Optimize a model with 294 rows, 552 columns and 2747 nonzeros
Model fingerprint: 0xed15b231
Model has 3 quadratic constraints
Variable types: 26 continuous, 526 integer (0 binary)
Coefficient statistics:
  Matrix range     [1e+00, 1e+05]
  QMatrix range    [1e+00, 1e+00]
  QLMatrix range   [6e+00, 3e+01]
  Objective range  [4e-01, 3e+01]
  Bounds range     [1e+00, 8e+01]
  RHS range        [1e+00, 1e+05]
  QRHS range       [1e+02, 1e+02]
Presolve removed 27 rows and 33 columns
Presolve time: 0.01s
Presolved: 576 rows, 759 columns, 3893 nonzeros
Variable types: 14 continuous, 745 integer (671 binary)
Found heuristic solution: objective 124.4535000

Root relaxation: objective 6.765140e+01, 69 iterations, 0.00 seconds (0.00 work units)

    Nodes    |    Current Node    |     Objective Bounds      |     Work
 Expl Unexpl |  Obj  Depth IntInf | Incumbent    BestBd   Gap | It/Node Time

     0     0   67.65140    0   28  124.45350   67.65140  45.6%     -    0s
     0     0   85.10274    0   28  124.45350   85.10274  31.6%     -    0s
H    0     0                     112.9794000   86.77041  23.2%     -    0s
     0     0   86.77041    0   24  112.97940   86.77041  23.2%     -    0s
     0     0   86.77041    0   23  112.97940   86.77041  23.2%     -    0s
     0     0   87.49246    0   17  112.97940   87.49246  22.6%     -    0s
     0     0   87.49246    0   17  112.97940   87.49246  22.6%     -    0s
     0     0   87.49511    0   16  112.97940   87.49511  22.6%     -    0s
     0     0   87.49511    0   20  112.97940   87.49511  22.6%     -    0s
H    0     0                     109.0616000   87.63865  19.6%     -    0s
     0     0   87.63865    0   27  109.06160   87.63865  19.6%     -    0s
H    0     0                     107.9060000   87.63865  18.8%     -    0s
     0     0   87.63865    0   27  107.90600   87.63865  18.8%     -    0s
     0     0   87.63865    0   23  107.90600   87.63865  18.8%     -    0s
     0     0   87.63865    0   15  107.90600   87.63865  18.8%     -    0s
     0     2   87.63870    0   12  107.90600   87.63870  18.8%     -    0s
H   37    60                     104.6636000   87.89886  16.0%  29.6    0s
H   56    60                     102.4923000   87.89892  14.2%  28.7    0s
*  372   252              26     100.4739000   87.89967  12.5%  13.1    0s
* 1348   375              11     100.1920000   90.61445  9.56%  12.0    0s
* 1814   408              21      99.5269000   92.19005  7.37%  11.7    0s
* 2760    45              15      99.2499000   93.95232  5.34%  11.5    0s

Cutting planes:
  Learned: 23
  Gomory: 8
  Cover: 14
  Implied bound: 39
  MIR: 8
  Flow cover: 2
  GUB cover: 1
  Inf proof: 15
  Zero half: 2
  RLT: 19

Explored 3209 nodes (36470 simplex iterations) in 0.40 seconds (0.41 work units)
Thread count was 20 (of 20 available processors)

Solution count 10: 99.2499 99.5269 100.192 ... 124.453

Optimal solution found (tolerance 1.00e-04)
Best objective 9.924990000000e+01, best bound 9.924990000000e+01, gap 0.0000%

AMPL MP initial flat model has 552 variables (0 integer, 526 binary);
Objectives: 1 linear; 
Constraints:  294 linear; 3 quadratic;

AMPL MP final model has 552 variables (0 integer, 526 binary);
Objectives: 1 linear; 
Constraints:  294 linear; 3 quadratic;


-----RESULTS INFO-----
running_time:  0.484
TC.best_bound:  99.24990000000001
TC:  99.2499
MIP Gap (%):  1.4318255953106256e-14
=== Vehicle Routes ===
Vehicle 1: 0 → 18
Vehicle 2: 0 → 9
Vehicle 2: 2 → 18
Vehicle 2: 9 → 2
Vehicle 3: 0 → 10
Vehicle 3: 1 → 11
Vehicle 3: 3 → 1
Vehicle 3: 7 → 3
Vehicle 3: 10 → 7
Vehicle 3: 11 → 15
Vehicle 3: 15 → 18

=== Full Vehicle Routes ===
Vehicle 1: 0 → 0 (0<100)
Vehicle 2: 0 → 9 → 2 → 0 (47<100)
Vehicle 3: 0 → 10 → 7 → 3 → 1 → 11 → 15 → 0 (97<100)
Arc used by MRT line: y variables:
Customer assigment to PL: u variables:
4 10
5 11
6 15
8 15
Node is served by regular vehicle: g variables:
1
2
3
7
9
10
11
15
Customer assigment to Home delivery: gm variables:
1
2
3
7
9
Node total demands: ntd variables:
1 25 1
2 25 1
3 6 1
7 8 1
8 0 0
9 22 1
16 0 0
17 0 0
10 29 1
11 11 1
12 0 0
13 0 0
14 0 0
15 18 1
Customer's demand delivered to PL: l variables:
4
5
6
8
Lockers load <= capacity:
0 <= 73
0 <= 88
29 <= 84
11 <= 69
0 <= 52
0 <= 63
0 <= 82
18 <= 71
